NAME : single
TYPE : ATSP
DIMENSION : 5
EDGE_WEIGHT_TYPE : EXPLICIT
EDGE_WEIGHT_FORMAT : FULL_MATRIX
EDGE_WEIGHT_SECTION
0 152 269 215 297 
0 0 295 93 271 
0 295 0 226 318 
0 93 226 0 259 
0 271 318 259 0 
EOF